<number of tasks>
20

<cycle time>
1000

<order strength>
0,5


<task times>
1 637
2 293
3 509
4 538
5 919
6 464
7 614
8 591
9 566
10 496
11 668
12 476
13 351
14 377
15 513
16 231
17 521
18 556
19 459
20 473

<precedence relations>
1,5
2,4
2,6
2,7
2,8
3,8
4,9
5,10
6,11
7,12
8,13
9,14
10,14
11,14
12,14
13,14
13,15
13,16
14,17
14,18
15,17
15,18
15,19
16,17
16,18
16,19
17,20
18,20
19,20

<end>
